
Gurobi 6.5.2 (linux64) logging started Sun Sep 18 18:41:10 2016


Gurobi 6.5.2 (linux64) logging started Sun Sep 18 18:41:10 2016

Optimize a model with 101 rows, 418 columns and 1087 nonzeros
Coefficient statistics:
  Matrix range    [1e+00, 2e+00]
  Objective range [2e+00, 1e+02]
  Bounds range    [1e+00, 1e+00]
  RHS range       [1e+00, 1e+00]
Presolve removed 26 rows and 1 columns
Presolve time: 0.00s
Presolved: 75 rows, 417 columns, 918 nonzeros
Variable types: 0 continuous, 417 integer (417 binary)

Root relaxation: objective 9.595000e+02, 62 iterations, 0.00 seconds

    Nodes    |    Current Node    |     Objective Bounds      |     Work
 Expl Unexpl |  Obj  Depth IntInf | Incumbent    BestBd   Gap | It/Node Time

     0     0  959.50000    0   10          -  959.50000      -     -    0s
H    0     0                    1197.0000000  959.50000  19.8%     -    0s
H    0     0                    1122.0000000  959.50000  14.5%     -    0s
     0     0  990.50000    0   10 1122.00000  990.50000  11.7%     -    0s
     0     0 1000.00000    0    2 1122.00000 1000.00000  10.9%     -    0s
     0     0 1000.50000    0    4 1122.00000 1000.50000  10.8%     -    0s
     0     0 1000.50000    0    4 1122.00000 1000.50000  10.8%     -    0s
H    0     0                    1007.0000000 1000.50000  0.65%     -    0s
     0     0 1000.50000    0    2 1007.00000 1000.50000  0.65%     -    0s
     0     0 1000.50000    0    8 1007.00000 1000.50000  0.65%     -    0s
     0     0 1001.00000    0    5 1007.00000 1001.00000  0.60%     -    0s
     0     0 1002.00000    0    7 1007.00000 1002.00000  0.50%     -    0s
     0     0 1002.00000    0    7 1007.00000 1002.00000  0.50%     -    0s
     0     2 1002.00000    0    7 1007.00000 1002.00000  0.50%     -    0s
*   10     4               2    1005.0000000 1003.00000  0.20%   2.1    0s

Cutting planes:
  Gomory: 4
  Cover: 6
  Clique: 2
  MIR: 1
  Zero half: 1
  Lazy constraints: 5

Explored 16 nodes (181 simplex iterations) in 0.04 seconds
Thread count was 8 (of 8 available processors)

Optimal solution found (tolerance 1.00e-04)
Best objective 1.005000000000e+03, best bound 1.005000000000e+03, gap 0.0%
